unsat
(:SPACER-cluster-out-of-gas           699
 :SPACER-conj                         190
 :SPACER-inductive-gen                1468
 :SPACER-inductive-gen-weaken-fail    1498
 :SPACER-inductive-level              98
 :SPACER-max-depth                    98
 :SPACER-max-query-lvl                98
 :SPACER-non-local-gen                1239
 :SPACER-num-active-lemmas            136
 :SPACER-num-ctp-blocked              3828
 :SPACER-num-invariants               111
 :SPACER-num-is_invariant             16641
 :SPACER-num-lemma-jumped             771
 :SPACER-num-lemmas                   1257
 :SPACER-num-pobs                     630
 :SPACER-num-propagations             11902
 :SPACER-num-queries                  688
 :SPACER-subsume-failed               7
 :SPACER-subsume-pob                  321
 :SPACER-subsume-success              1653
 :added-eqs                           48358
 :arith-assert-diseq                  336286
 :arith-assert-lower                  954002
 :arith-assert-upper                  1338648
 :arith-bound-prop                    3122
 :arith-conflicts                     646
 :arith-eq-adapter                    7410
 :arith-fixed-eqs                     8254
 :arith-num-rows                      44
 :arith-offset-eqs                    468
 :arith-pivots                        4188
 :arith-row-summations                22312
 :arith-tableau-max-columns           182
 :arith-tableau-max-rows              44
 :conflicts                           37540
 :decisions                           668748
 :del-clause                          37600
 :final-checks                        3856
 :iuc_solver.num_proxies              558
 :max-memory                          291.30
 :memory                              275.04
 :minimized-lits                      1220
 :mk-bool-var                         98216
 :mk-clause                           94526
 :num-allocs                          1307088492980.00
 :num-checks                          37202
 :pool_solver.checks                  18601
 :pool_solver.checks.sat              1928
 :propagations                        7349172
 :rlimit-count                        20872233
 :time                                30.72
 :time.iuc_solver.get_iuc             1.44
 :time.iuc_solver.get_iuc.hyp_reduce1 0.19
 :time.iuc_solver.get_iuc.hyp_reduce2 0.46
 :time.iuc_solver.get_iuc.learn_core  0.28
 :time.pool_solver.proof              0.21
 :time.pool_solver.smt.total          20.99
 :time.pool_solver.smt.total.sat      6.17
 :time.spacer.ctp                     0.88
 :time.spacer.init_rules              0.00
 :time.spacer.mbp                     0.14
 :time.spacer.solve                   30.61
 :time.spacer.solve.propagate         14.82
 :time.spacer.solve.reach             15.78
 :time.spacer.solve.reach.children    0.75
 :time.spacer.solve.reach.cluster     1.94
 :time.spacer.solve.reach.gen.global  2.44
 :time.spacer.solve.reach.gen.ind     1.12
 :time.spacer.solve.reach.is-reach    0.23)
(:max-memory   291.30
 :memory       275.04
 :num-allocs   1307088492980.00
 :rlimit-count 20872233
 :time         30.72
 :total-time   30.74)
